LAMMPS (29 Aug 2024 - Update 1)
########################################
########################################
# United atom propane at 300 K, using ***Turbo*** ChIMES
########################################
########################################


##########################################
# USER-SPECIFIED VARIABLES
##########################################

variable temp equal 300
variable seed equal 6306
variable iofrq equal 4

########################################
# GENERAL CONTROLS
########################################

units           real                          # Required for CHIMES pair style
newton          on                            # Required for CHIMES pair style
atom_style      atomic                        # Required for CHIMES pair style
atom_modify     sort 0 0.0                    # Required for CHIMES pair style
atom_modify     map array                     # Required for CHIMES pair style

neighbor        2.0 bin
neigh_modify    delay 0 every 1 check yes     # Required for CHIMES pair style


########################################
# INITIALIZATION CONTROLS
########################################

read_data       data.in #
Reading data file ...
  orthogonal box = (0 0 0) to (16.5 16.5 16.5)
  3 by 3 by 4 MPI processor grid
  reading atoms ...
  272 atoms
  read_data CPU = 0.009 seconds
velocity        all create ${temp} ${seed} loop all mom yes rot yes dist gaussian
velocity        all create 300 ${seed} loop all mom yes rot yes dist gaussian
velocity        all create 300 6306 loop all mom yes rot yes dist gaussian


########################################
# FORCE FIELD CONTROLS
########################################

# The number of instances of "chimesFF" should match the number of *.fm_setup.in files you create/fit when developing a TurboChIMES model
# If using with the ALD, replace each instance of "chimesFF" with "chimesFF for_fitting"

pair_style      hybrid/overlay chimesFF chimesFF
pair_coeff      * * chimesFF  1  0.params.txt.reduced
pair_coeff      * * chimesFF  2  1.params.txt.reduced


########################################
# RUN, DUMP, AND THERMO CONTROLS
########################################

##### Set the ensemble

timestep        0.05
fix             1 all nvt temp ${temp} ${temp} 5
fix             1 all nvt temp 300 ${temp} 5
fix             1 all nvt temp 300 300 5

##### Define thermo output

compute         ke_tensor all temp
thermo_style    custom step time ke pe etotal temp press pxx pyy pzz pxy pxz pyz vol c_ke_tensor[1] c_ke_tensor[2] c_ke_tensor[3] c_ke_tensor[4] c_ke_tensor[5] c_ke_tensor[6] econserve # econserve replaces fix_modify
thermo_modify   line one format float %20.5f flush yes
thermo          ${iofrq}
thermo          4

##### Print dump files

dump            1 all custom ${iofrq} traj.lammpstrj element xu yu zu fx fy fz
dump            1 all custom 4 traj.lammpstrj element xu yu zu fx fy fz
dump_modify     1 element N H sort id

##### Run the simulation

run             100

CITE-CITE-CITE-CITE-CITE-CITE-CITE-CITE-CITE-CITE-CITE-CITE-CITE

Your simulation uses code contributions which should be cited:

- Type Label Framework: https://doi.org/10.1021/acs.jpcb.3c08419

@Article{Gissinger24,
 author = {Jacob R. Gissinger, Ilia Nikiforov, Yaser Afshar, Brendon Waters, Moon-ki Choi, Daniel S. Karls, Alexander Stukowski, Wonpil Im, Hendrik Heinz, Axel Kohlmeyer, and Ellad B. Tadmor},
 title = {Type Label Framework for Bonded Force Fields in LAMMPS},
 journal = {J. Phys. Chem. B},
 year =    2024,
 volume =  128,
 number =  13,
 pages =   {3282â€“-3297}
}

CITE-CITE-CITE-CITE-CITE-CITE-CITE-CITE-CITE-CITE-CITE-CITE-CITE

Generated 0 of 1 mixed pair_coeff terms from geometric mixing rule
Neighbor list info ...
  update: every = 1 steps, delay = 0 steps, check = yes
  max neighbors/atom: 2000, page size: 100000
  master list distance cutoff = 9
  ghost atom cutoff = 9
  binsize = 4.5, bins = 4 4 4
  2 neighbor lists, perpetual/occasional/extra = 2 0 0
  (1) pair chimesFF, perpetual, trim from (2)
      attributes: full, newton on, ghost, cut 5.5
      pair build: trim
      stencil: none
      bin: none
  (2) pair chimesFF, perpetual
      attributes: full, newton on, ghost
      pair build: full/bin/ghost
      stencil: full/ghost/bin/3d
      bin: standard
Per MPI rank memory allocation (min/avg/max) = 3.622 | 3.622 | 3.622 Mbytes
   Step          Time          KinEng         PotEng         TotEng          Temp          Press           Pxx            Pyy            Pzz            Pxy            Pxz            Pyz           Volume     c_ke_tensor[1] c_ke_tensor[2] c_ke_tensor[3] c_ke_tensor[4] c_ke_tensor[5] c_ke_tensor[6]   Econserve   
         0               0.00000            242.33986         -40759.19487         -40516.85501            300.00000          41344.80404          36950.61626          40672.19115          46411.60472           4545.93422          -6825.41609         -13616.48453           4492.12500            160.07647            147.31436            177.28888             -8.76570             -9.87408              8.07556         -40516.85501
         4               0.20000            249.04968         -40765.90730         -40516.85762            308.30630          41119.77823          36575.54914          40217.08561          46566.69995           4960.51447          -6810.12552         -13709.62135           4492.12500            168.85705            152.29130            176.95102             -8.30930             -9.68315             11.24259         -40516.85660
         8               0.40000            275.45639         -40792.35153         -40516.89514            340.99598          40261.43212          35533.23200          39150.29409          46100.77026           5380.82875          -6708.93938         -13814.18117           4492.12500            191.50922            168.74658            190.65699             -8.08445            -11.29403             14.32707         -40516.86351
        12               0.60000            319.69174         -40836.77084         -40517.07910            395.75628          38797.34910          33855.18259          37506.89871          45029.96601           5797.80878          -6530.20503         -13934.60592           4492.12500            226.42953            195.50220            217.45175             -7.81362            -14.35704             17.26688         -40516.87471
        16               0.80000            378.63589         -40896.29900         -40517.66311            468.72507          36776.23436          31599.18095          35341.61668          43387.90545           6208.46924          -6285.82809         -14070.74664           4492.12500            271.10571            230.60013            255.56593             -7.15868            -18.49382             19.98961         -40516.88853
        20               1.00000            448.22499         -40967.33776         -40519.11277            554.87157          34278.49170          28857.82207          32738.78834          41238.86469           6595.62911          -5989.42267         -14215.15507           4492.12500            322.38240            271.51183            302.55575             -5.82700            -23.32311             22.41449         -40516.90335
        24               1.20000            523.80953         -41045.96382         -40522.15428            648.44001          31392.92451          25737.02566          29779.71490          38662.03299           6950.32998          -5654.22963         -14362.32112           4492.12500            376.75054            315.38806            355.48047             -3.65903            -28.46765             24.46001         -40516.91771
        28               1.40000            600.53896         -41128.28929         -40527.75033            743.42574          28208.48282          22342.99081          26553.94168          35728.51597           7267.38466          -5284.15631         -14514.90655           4492.12500            430.65511            359.31583            411.10699             -0.67663            -33.56877             26.05867         -40516.93035
        32               1.60000            673.81630         -41210.73935         -40536.92305            834.13802          24822.81125          18792.78707          23148.97417          32526.67251           7541.90245          -4893.31883         -14663.88404           4492.12500            480.82635            400.60665            466.19959              2.92595            -38.31185             27.18060         -40516.93998
        36               1.80000            739.90808         -41290.24584         -40550.33776            915.95509          21341.21687          15207.77505          19659.74622          29156.12934           7773.11629          -4492.87016         -14800.79838           4492.12500            524.70668            437.15347            517.95602              6.83246            -42.46075             27.85192         -40516.94573
        40               2.00000            796.63283         -41364.36402         -40567.73119            986.17640          17872.58011          11708.30011          16185.05909          25724.38113           7963.34377          -4094.34973         -14915.00526           4492.12500            560.91487            467.81233            564.53846             10.68108            -45.89863             28.16150         -40516.94796
        44               2.20000            843.58381         -41431.31034         -40587.72653           1044.29847          14523.37473           8413.51376          12809.01411          22347.59631           8112.98701          -3713.56611         -15000.01207           4492.12500            589.36056            492.49594            605.31112             14.13933            -48.64116             28.24597         -40516.94605
        48               2.40000            881.27340         -41489.92713         -40608.65373           1090.95558          11398.26282           5450.24549           9612.50803          19132.03495           8237.29447          -3359.96576         -15047.82632           4492.12500            610.60901            511.62633            640.31146             16.93857            -50.78868             28.24294         -40516.94470
        52               2.60000            909.76362         -41539.53289         -40629.76927           1126.22451           8544.63596           2861.96746           6643.08997          16128.85045           8330.23491          -3033.67165         -15047.93095           4492.12500            624.91225            525.34752            669.26748             18.86894            -52.41315             28.23393         -40516.95011
        56               2.80000            928.32494         -41579.80407         -40651.47913           1149.20214           5997.32384            674.59028           3932.62407          13384.75716           8394.02890          -2738.86014         -14995.02465           4492.12500            631.96447            533.34139            691.34402             19.77735            -53.54018             28.23819         -40516.95258
        60               3.00000            936.14872         -41610.72629         -40674.57757           1158.88744           3774.20117          -1098.18075           1495.92239          10924.86187           8432.82320          -2478.48968         -14885.81623           4492.12500            631.42061            535.23163            705.64520             19.58086            -54.17729             28.23597         -40516.94781
        64               3.20000            933.06214         -41632.57460         -40699.51246           1155.06647           1882.45370          -2456.79655           -661.73662           8765.89426           8446.30721          -2256.35357         -14717.21453           4492.12500            623.38370            530.99313            711.74746             18.28946            -54.34023             28.19021         -40516.93996
        68               3.40000            919.78265         -41645.89681         -40726.11416           1138.62737            333.42937          -3408.55762          -2529.31080           6938.15654           8435.37605          -2068.12381         -14489.73267           4492.12500            608.56016            521.08981            709.91532             16.01519            -54.05482             28.05840         -40516.93225
        72               3.60000            897.75477         -41651.47558         -40753.72081           1111.35838           -889.23777          -3975.59815          -4116.75070           5424.63554           8394.73396          -1921.63381         -14205.83496           4492.12500            588.13211            506.37414            701.00329             12.96042            -53.34566             27.79575         -40516.92636
        76               3.80000            868.77558         -41650.27972         -40781.50414           1075.48415          -1808.72505          -4188.47483          -5444.65583           4206.95551           8317.68084          -1818.13258         -13861.57249           4492.12500            563.49107            487.88151            686.17858              9.39282            -52.21970             27.34981         -40516.92254
        80               4.00000            834.64918         -41643.40750         -40808.75831           1033.23802          -2455.18861          -4089.37043          -6534.67198           3258.47658           8196.41281          -1758.21891         -13461.10180           4492.12500            536.00279            466.63502            666.66055              5.62065            -50.65460             26.66233         -40516.91999
        84               4.20000            797.01872         -41632.02945         -40835.01073            986.65411          -2863.56593          -3726.21385          -7412.70250           2548.21857           8025.25450          -1739.17946         -13007.28267           4492.12500            506.89408            443.55682            643.58653              1.96738            -48.61033             25.67327         -40516.91792
        88               4.40000            757.34314         -41617.33211         -40859.98897            937.53848          -3075.00350          -3154.53384          -8108.16157           2037.68491           7799.71316          -1756.01813         -12503.63636           4492.12500            477.23466            419.46256            617.98906             -1.25501            -46.05342             24.32762         -40516.91613
        92               4.60000            716.91604         -41600.46454         -40883.54850            887.49253          -3135.82776          -2434.56095          -8655.05020           1682.12788           7514.22083          -1804.14619         -11955.78191           4492.12500            447.94516            395.07765            590.80928             -3.77552            -42.98491             22.58241         -40516.91484
        96               4.80000            676.86805         -41582.49032         -40905.62227            837.91589          -3090.90782          -1623.53114          -9085.65188           1436.45956           7166.94631          -1877.75159         -11369.26667           4492.12500            419.79564            371.04268            562.89779             -5.39400            -39.46303             20.41334         -40516.91425
       100               5.00000            638.15372         -41564.35132         -40926.19760            789.99021          -2981.47702           -773.65557          -9429.95520           1259.17972           6760.74574          -1968.73705         -10750.98268           4492.12500            393.39932            347.90763            535.00049             -6.00481            -35.61463             17.82046         -40516.91442
Loop time of 0.272415 on 36 procs for 100 steps with 272 atoms

Performance: 1.586 ns/day, 15.134 hours/ns, 367.087 timesteps/s, 99.848 katom-step/s
99.0% CPU use with 36 MPI tasks x no OpenMP threads

MPI task timing breakdown:
Section |  min time  |  avg time  |  max time  |%varavg| %total
---------------------------------------------------------------
Pair    | 0.025777   | 0.11545    | 0.25336    |  20.9 | 42.38
Neigh   | 0          | 0          | 0          |   0.0 |  0.00
Comm    | 0.0083685  | 0.14617    | 0.23582    |  18.6 | 53.66
Output  | 0.0046518  | 0.0068028  | 0.0095378  |   1.8 |  2.50
Modify  | 0.00063842 | 0.00081661 | 0.00093443 |   0.0 |  0.30
Other   |            | 0.003179   |            |       |  1.17

Nlocal:        7.55556 ave          12 max           2 min
Histogram: 1 0 2 4 5 3 9 6 2 4
Nghost:        731.944 ave         758 max         713 min
Histogram: 6 7 6 2 3 0 2 0 5 5
Neighs:              0 ave           0 max           0 min
Histogram: 36 0 0 0 0 0 0 0 0 0
FullNghs:      315.444 ave         490 max          98 min
Histogram: 1 2 3 5 3 7 6 3 2 4

Total # of neighbors = 11356
Ave neighs/atom = 41.75
Neighbor list builds = 0
Dangerous builds = 0
Total wall time: 0:00:00
