LAMMPS (29 Aug 2024 - Update 1)
########################################
########################################
# NPT-MD (thermalization) for a ~3000 C atom system with ~140000 Ar atoms (4 nm CNP)
# DO NOT RUN THIS SCRIPT WITH MORE THAN 224 PROCS!!! There will be domain decomposition errors
# With a 0.5 fs timestep, can get .75 ns/day on 224 procs
# SOMETHING TO CONSIDER: How frequently should we output positions/velocities to make statements about time-resolved thermal equi libration?
########################################
########################################


##########################################
# USER-SPECIFIED VARIABLES
##########################################

variable tstep               equal  0.5                                        # timestep in fs
variable run_steps           equal  300                                        # Number of steps to run
variable temperature         equal  2500                                       # Temperature (K)
variable pressure            equal  78953.8                                    # Target pressure (atm)

variable io_freq             equal  1                                          # Frequency of dumping trajectory (steps)

variable data_file           string CNP_40Ang_2500K_8GPa.data.in			   # Data file for initial structure
variable restart_file        string npt.restart                                # Restart file
variable param_file          string C-2.0-Small.params.txt.reduced             # Small carbon model parameter file


########################################
# GENERAL CONTROLS
########################################

units           real                          # Required for CHIMES pair style
newton          on                            # Required for CHIMES pair style
atom_style      atomic                        # Required for CHIMES pair style
atom_modify     sort 0 0.0                    # Prevent sorting (to maintain 3b parent/neighbor relationships)
atom_modify     map array                     # May improve efficiency

neighbor        1.5 bin
neigh_modify    delay 0 every 1 check yes


########################################
# INITIALIZATION CONTROLS
########################################

read_data       ${data_file}
read_data       CNP_40Ang_2500K_8GPa.data.in
Reading data file ...
  orthogonal box = (0 0 0) to (150 150 150)
  1 by 1 by 1 MPI processor grid
  reading atoms ...
  104576 atoms
  read_data CPU = 0.212 seconds

velocity        all create ${temperature} 1234 dist gaussian mom yes rot yes loop all  # Assign initial velocity (comment this line out when reading from a restart file)
velocity        all create 2500 1234 dist gaussian mom yes rot yes loop all  

group carbon type 1    # group carbon atoms (for better load balance)
3359 atoms in group carbon
group argon  type 2    # group argon  atoms
101217 atoms in group argon


########################################
# FORCE FIELD CONTROLS
########################################

pair_style      hybrid/overlay chimesFF momb 9.0 0.75 20.0 lj/cut 10.0            # Use ChIMES, momb and LJ potentials (removed "for_fitting" after chimesFF copied from the parameter file)
pair_coeff      * * chimesFF ${param_file}                                        # Use ChIMES for C-C
pair_coeff      * * chimesFF C-2.0-Small.params.txt.reduced                                        
pair_coeff      1 1 momb 0.0 1.0 1.0 418.26 2.904                                 # Use momb for dispersion correction (only for the small carbon model, copied from the parameter file)
pair_coeff      1 2 lj/cut 0.25   3.5                                             # Use LJ for C-Ar  (epsilon: Kcal/mol, sigma: Angstrom) calculated with L-B combining rules
pair_coeff      2 2 lj/cut 0.25   3.5                                             # Use LJ for Ar-Ar (epsilon: Kcal/mol, sigma: Angstrom)

# LJ params for Ar:    0.25 3.5             (epsilon: Kcal/mol, sigma: Angstrom, treated as general LJ particles instead of actual Ar atoms)
# LJ params for Ar-C:  Manually s�et to make the elements immiscibles


########################################
# RESTART CONTROLS
########################################

restart         100 npt.a.restart npt.b.restart	# Write restart files


########################################
# RUN, DUMP, AND THERMO CONTROLS
########################################

##### Set the ensemble

variable temp_damp  equal  v_tstep*100.0	# Temperature damping coefficient
variable press_damp equal  v_tstep*1000.0	# Pressure damping coefficient

fix             1 all npt temp ${temperature} ${temperature} ${temp_damp} iso ${pressure} ${pressure} ${press_damp}  # Couple pressure with "iso" for liquid system
fix             1 all npt temp 2500 ${temperature} ${temp_damp} iso ${pressure} ${pressure} ${press_damp}  
fix             1 all npt temp 2500 2500 ${temp_damp} iso ${pressure} ${pressure} ${press_damp}  
fix             1 all npt temp 2500 2500 50 iso ${pressure} ${pressure} ${press_damp}  
fix             1 all npt temp 2500 2500 50 iso 78953.8 ${pressure} ${press_damp}  
fix             1 all npt temp 2500 2500 50 iso 78953.8 78953.8 ${press_damp}  
fix             1 all npt temp 2500 2500 50 iso 78953.8 78953.8 500  

##### Enable load balancing since LJ Ar-Ar and C-Ar interactions are WAY cheaper than C-C interactions

comm_style 	tiled
fix 		2 all balance 10 0.25 rcb weight time 0.75 # This should generally work well for any system that requires load balancing

##### Define thermo output

variable e_ensemble           equal f_1
variable e_conserve           equal ke+pe+v_e_ensemble
thermo_style    custom step time temp press density ke pe etotal v_e_ensemble v_e_conserve econserve
thermo_modify   line one format float %20.5f flush yes
thermo          ${io_freq}
thermo          1

##### Print separate dump files for the whole system and just the particle

#dump            dump_1 all custom ${io_freq} traj.lammpstrj id type element xu yu zu vx vy vz
#dump_modify     dump_1 sort id element C Ar

#dump            dump_2 carbon custom ${io_freq} traj.C.lammpstrj id type element xu yu zu vx vy vz
#dump_modify     dump_2 sort id element C Ar

##### Run the simulation

timestep        ${tstep}
timestep        0.5
run             ${run_steps}
run             300

CITE-CITE-CITE-CITE-CITE-CITE-CITE-CITE-CITE-CITE-CITE-CITE-CITE

Your simulation uses code contributions which should be cited:

- Type Label Framework: https://doi.org/10.1021/acs.jpcb.3c08419

@Article{Gissinger24,
 author = {Jacob R. Gissinger, Ilia Nikiforov, Yaser Afshar, Brendon Waters, Moon-ki Choi, Daniel S. Karls, Alexander Stukowski, Wonpil Im, Hendrik Heinz, Axel Kohlmeyer, and Ellad B. Tadmor},
 title = {Type Label Framework for Bonded Force Fields in LAMMPS},
 journal = {J. Phys. Chem. B},
 year =    2024,
 volume =  128,
 number =  13,
 pages =   {3282–-3297}
}

- Pair style momb: doi:10.1021/jp412098n

@Article{pair_momb_2015,
title = {A Force Field for Describing the Polyvinylpyrrolidone-Mediated
    Solution-Phase Synthesis of Shape-Selective {Ag} Nanoparticles},
volume = {118},
number = {6},
url = {https://doi.org/10.1021/jp412098n},
doi = {10.1021/jp412098n},
journal = {J.~Phys.\ Chem.~C},
author = {Zhou, Ya and Wissam A. Saidi and Kristen A. Fichthorn},
year = {2014},
pages = {3366--3374}
}

CITE-CITE-CITE-CITE-CITE-CITE-CITE-CITE-CITE-CITE-CITE-CITE-CITE

Generated 0 of 1 mixed pair_coeff terms from geometric mixing rule
Neighbor list info ...
  update: every = 1 steps, delay = 0 steps, check = yes
  max neighbors/atom: 2000, page size: 100000
  master list distance cutoff = 11.5
  ghost atom cutoff = 11.5
  binsize = 5.75, bins = 27 27 27
  4 neighbor lists, perpetual/occasional/extra = 4 0 0
  (1) pair chimesFF, perpetual
      attributes: full, newton on, ghost, cut 6.5
      pair build: full/bin/ghost
      stencil: full/ghost/bin/3d
      bin: standard
  (2) pair momb, perpetual, skip trim from (4)
      attributes: half, newton on, cut 10.5
      pair build: skip/trim
      stencil: none
      bin: none
  (3) pair lj/cut, perpetual, skip from (4)
      attributes: half, newton on
      pair build: skip
      stencil: none
      bin: none
  (4) neighbor class addition, perpetual
      attributes: half, newton on
      pair build: half/bin/atomonly/newton
      stencil: half/bin/3d
      bin: standard
Per MPI rank memory allocation (min/avg/max) = 150.5 | 150.5 | 150.5 Mbytes
   Step          Time           Temp          Press         Density         KinEng         PotEng         TotEng      v_e_ensemble   v_e_conserve    Econserve   
         0               0.00000           2500.00000         162897.22719              2.00926         779295.52745         590687.59812        1369983.12557              0.00000        1369983.12557        1369983.12557
         1               0.50000           2500.85910         162870.56626              2.00923         779563.32608         590324.43240        1369887.75848             95.63919        1369983.39767        1369983.39767
         2               1.00000           2502.71891         162809.47374              2.00916         780143.06140         589458.52633        1369601.58772            382.47993        1369984.06765        1369984.06765
         3               1.50000           2505.59887         162713.54851              2.00904         781040.79797         588084.36157        1369125.15954            860.30244        1369985.46197        1369985.46197
         4               2.00000           2509.53163         162582.32134              2.00887         782266.70947         586192.00246        1368458.71193           1528.70336        1369987.41529        1369987.41529
         5               2.50000           2514.56254         162414.89137              2.00866         783834.93765         583768.04495        1367602.98260           2387.01939        1369990.00199        1369990.00199
         6               3.00000           2520.74928         162210.23234              2.00840         785763.45706         580795.14709        1366558.60415           3434.22120        1369992.82535        1369992.82535
         7               3.50000           2528.16160         161967.08044              2.00809         788074.00991         577253.43970        1365327.44961           4668.78065        1369996.23026        1369996.23026
         8               4.00000           2536.88033         161684.23907              2.00773         790791.79851         573119.85947        1363911.65798           6088.51517        1370000.17315        1370000.17315
         9               4.50000           2546.99615         161360.37245              2.00733         793945.08209         568368.87664        1362313.95873           7690.41493        1370004.37366        1370004.37366
        10               5.00000           2558.60840         160994.11643              2.00688         797564.83357         562974.03438        1360538.86795           9470.45907        1370009.32702        1370009.32702
        11               5.50000           2571.82306         160584.16635              2.00639         801684.08267         556906.75781        1358590.84048          11423.43222        1370014.27270        1370014.27270
        12               6.00000           2586.75036         160129.92309              2.00586         806337.19439         550139.60035        1356476.79474          13542.75882        1370019.55356        1370019.55356
        13               6.50000           2603.50141         159631.30464              2.00528         811558.80299         542646.07494        1354204.87793          15820.37156        1370025.24950        1370025.24950
        14               7.00000           2622.18330         159088.33991              2.00467         817382.28837         534401.91359        1351784.20196          18246.62428        1370030.82623        1370030.82623
        15               7.50000           2642.89430         158501.58984              2.00403         823838.28284         525387.66776        1349225.95060          20810.26926        1370036.21985        1370036.21985
        16               8.00000           2665.71887         157871.94925              2.00335         830953.11702         515589.15039        1346542.26741          23498.51775        1370040.78515        1370040.78515
        17               8.50000           2690.72225         157201.30673              2.00265         838747.12451         505001.35132        1343748.47584          26297.19861        1370045.67445        1370045.67445
        18               9.00000           2717.94501         156491.73238              2.00192         847232.95702         493625.84270        1340858.79973          29191.01718        1370049.81691        1370049.81691
        19               9.50000           2747.39787         155745.46162              2.00117         856413.94882         481475.20570        1337889.15452          32163.90283        1370053.05735        1370053.05735
        20              10.00000           2779.05770         154965.28263              2.00041         866282.89310         468573.48655        1334856.37965          35199.44058        1370055.82023        1370055.82023
        21              10.50000           2812.86794         154153.45013              1.99963         876822.16243         454954.88414        1331777.04657          38281.35169        1370058.39826        1370058.39826
        22              11.00000           2848.74216         153312.24465              1.99886         888004.80857         440661.67133        1328666.47990          41393.98697        1370060.46687        1370060.46687
        23              11.50000           2886.56499         152444.03852              1.99808         899794.87368         425744.45264        1325539.32632          44522.80175        1370062.12806        1370062.12806
        24              12.00000           2926.18790         151551.91676              1.99730         912146.05742         410261.83937        1322407.89679          47654.76751        1370062.66430        1370062.66430
        25              12.50000           2967.42552         150639.33599              1.99653         925000.57399         394283.53826        1319284.11224          50778.67282        1370062.78506        1370062.78506
        26              13.00000           3010.06420         149709.21324              1.99577         938291.82806         377885.23410        1316177.06217          53885.26322        1370062.32538        1370062.32538
        27              13.50000           3053.88567         148762.86786              1.99502         951951.77758         361143.49918        1313095.27676          56967.19626        1370062.47303        1370062.47303
        28              14.00000           3098.69795         147801.25506              1.99429         965920.58055         344123.90883        1310044.48938          60018.84100        1370063.33039        1370063.33039
        29              14.50000           3144.35940         146824.72708              1.99357         980154.08530         326875.02991        1307029.11521          63035.96986        1370065.08507        1370065.08507
        30              15.00000           3190.75809         145832.74115              1.99286         994617.40213         309432.86353        1304050.26566          66015.39321        1370065.65887        1370065.65887
        31              15.50000           3237.75172         144827.27746              1.99218        1009266.17468         291844.32234        1301110.49701          68954.64996        1370065.14698        1370065.14698
        32              16.00000           3285.15750         143811.13733              1.99150        1024043.41922         274169.93841        1298213.35763          71851.83243        1370065.19006        1370065.19006
        33              16.50000           3332.79979         142787.55873              1.99084        1038894.38755         256465.79999        1295360.18754          74705.58607        1370065.77361        1370065.77361
        34              17.00000           3380.54511         141758.52790              1.99020        1053777.47522         238774.89274        1292552.36796          77515.30800        1370067.67597        1370067.67597
        35              17.50000           3428.31299         140725.86151              1.98956        1068667.59224         221120.96622        1289788.55846          80281.49867        1370070.05712        1370070.05712
        36              18.00000           3476.04857         139691.26281              1.98894        1083547.64053         203517.59744        1287065.23797          83006.15711        1370071.39508        1370071.39508
        37              18.50000           3523.67255         138655.91231              1.98833        1098392.90251         185985.56919        1284378.47170          85693.05273        1370071.52442        1370071.52442
        38              19.00000           3571.06605         137621.48418              1.98772        1113166.31923         168556.94995        1281723.26918          88347.75499        1370071.02417        1370071.02417
        39              19.50000           3618.09435         136589.79925              1.98713        1127825.89876         151267.64617        1279093.54493          90977.37961        1370070.92454        1370070.92454
        40              20.00000           3664.65334         135560.98895              1.98653        1142339.18431         134142.22826        1276481.41257          93590.08507        1370071.49763        1370071.49763
        41              20.50000           3710.65817         134534.05425              1.98595        1156679.72668         117195.37492        1273875.10161          96194.44129        1370069.54290        1370069.54290
        42              21.00000           3755.93082         133511.28344              1.98537        1170792.03569         100474.00419        1271266.03988          98798.82167        1370064.86155        1370064.86155
        43              21.50000           3800.19119         132497.24758              1.98479        1184588.79887          84061.83351        1268650.63238         101410.87882        1370061.51120        1370061.51120
        44              22.00000           3843.19375         131495.10693              1.98421        1197993.48096          68029.88489        1266023.36585         104037.09624        1370060.46209        1370060.46209
        45              22.50000           3884.78934         130501.98088              1.98364        1210959.58179          52417.81037        1263377.39216         106682.41673        1370059.80889        1370059.80889
        46              23.00000           3924.85544         129517.05075              1.98307        1223448.91763          37260.79968        1260709.71731         109350.02872        1370059.74603        1370059.74603
        47              23.50000           3963.30225         128537.15692              1.98250        1235433.48681          22587.96515        1258021.45196         112041.32596        1370062.77792        1370062.77792
        48              24.00000           4000.09840         127560.01615              1.98193        1246903.51845           8403.18005        1255306.69850         114756.01725        1370062.71575        1370062.71575
        49              24.50000           4035.09441         126588.41200              1.98137        1257812.41094          -5245.54808        1252566.86286         117492.41988        1370059.28274        1370059.28274
        50              25.00000           4068.00816         125629.76774              1.98081        1268072.22684         -18260.40407        1249811.82277         120247.85905        1370059.68182        1370059.68182
        51              25.50000           4098.65923         124688.86797              1.98025        1277626.72300         -30583.83105        1247042.89195         123019.07983        1370061.97178        1370061.97178
        52              26.00000           4126.95572         123769.74584              1.97970        1286447.25522         -42188.58049        1244258.67473         125802.63364        1370061.30837        1370061.30837
        53              26.50000           4152.80033         122877.41784              1.97915        1294503.48848         -53033.99244        1241469.49604         128595.20678        1370064.70282        1370064.70282
        54              27.00000           4176.32928         122008.18606              1.97860        1301837.89127         -63154.38584        1238683.50543         131393.80251        1370077.30794        1370077.30794
        55              27.50000           4198.03071         121151.71310              1.97806        1308602.62124         -72707.51024        1235895.11101         134195.81178        1370090.92279        1370090.92279
        56              28.00000           4218.45942         120296.71260              1.97752        1314970.62418         -81868.97903        1233101.64515         136999.04097        1370100.68612        1370100.68612
        57              28.50000           4237.88592         119437.42652              1.97699        1321026.21880         -90729.15000        1230297.06880         139801.67170        1370098.74050        1370098.74050
        58              29.00000           4256.01661         118587.33967              1.97647        1326677.88210         -99191.86381        1227486.01829         142602.21013        1370088.22841        1370088.22841
        59              29.50000           4272.28073         117766.49198              1.97595        1331747.70686        -107054.84487        1224692.86198         145399.40919        1370092.27118        1370092.27118
        60              30.00000           4286.63429         116976.77825              1.97543        1336221.97142        -114304.08750        1221917.88392         148192.11155        1370109.99546        1370109.99546
        61              30.50000           4299.62686         116205.10191              1.97493        1340271.99198        -121124.30272        1219147.68926         150979.15352        1370126.84278        1370126.84278
        62              31.00000           4311.82717         115436.49735              1.97443        1344075.05150        -127699.20270        1216375.84881         153759.38095        1370135.22976        1370135.22976
        63              31.50000           4323.34736         114674.48448              1.97393        1347666.10571        -134068.27565        1213597.83006         156531.73828        1370129.56835        1370129.56835
        64              32.00000           4333.76363         113932.49101              1.97345        1350913.04443        -140082.73181        1210830.31263         159295.31602        1370125.62864        1370125.62864
        65              32.50000           4342.71603         113225.57772              1.97297        1353703.67157        -145616.36827        1208087.30330         162049.32654        1370136.62984        1370136.62984
        66              33.00000           4350.39235         112550.44913              1.97250        1356096.52026        -150739.41284        1205357.10742         164793.08785        1370150.19528        1370150.19528
        67              33.50000           4357.21447         111895.42229              1.97204        1358223.10056        -155588.12476        1202634.97579         167526.01136        1370160.98715        1370160.98715
        68              34.00000           4363.53104         111252.58757              1.97158        1360192.09017        -160269.83646        1199922.25371         170247.63721        1370169.89091        1370169.89091
        69              34.50000           4369.54274         110616.03318              1.97113        1362066.04446        -164852.64244        1197213.40202         172957.65450        1370171.05652        1370171.05652
        70              35.00000           4375.12663         109989.16992              1.97069        1363806.64726        -169297.74534        1194508.90192         175655.88115        1370164.78307        1370164.78307
        71              35.50000           4379.86585         109386.11809              1.97026        1365283.94735        -173464.73792        1191819.20943         178342.23616        1370161.44560        1370161.44560
        72              36.00000           4383.51416         108814.98580              1.96984        1366421.19121        -177267.20214        1189153.98907         181016.69600        1370170.68507        1370170.68507
        73              36.50000           4386.34633         108268.61528              1.96942        1367304.03179        -180799.42647        1186504.60531         183679.27156        1370183.87688        1370183.87688
        74              37.00000           4388.79832         107737.27874              1.96901        1368068.35931        -184210.74635        1183857.61296         186330.04658        1370187.65954        1370187.65954
        75              37.50000           4391.01527         107212.06436              1.96861        1368759.42327        -187540.46603        1181218.95724         188969.17319        1370188.13043        1370188.13043
        76              38.00000           4392.93796         106699.90319              1.96821        1369358.76112        -190760.37989        1178598.38123         191596.86598        1370195.24721        1370195.24721
        77              38.50000           4394.72893         106195.35931              1.96783        1369917.03846        -193926.80553        1175990.23293         194213.41300        1370203.64593        1370203.64593
        78              39.00000           4396.59159         105705.40809              1.96744        1370497.66597        -197107.61638        1173390.04959         196819.21566        1370209.26525        1370209.26525
        79              39.50000           4398.51932         105230.93076              1.96707        1371098.57311        -200306.08132        1170792.49179         199414.79880        1370207.29059        1370207.29059
        80              40.00000           4400.26620         104769.08772              1.96670        1371643.10892        -203442.09581        1168201.01311         202000.66295        1370201.67607        1370201.67607
        81              40.50000           4401.61656         104326.31472              1.96634        1372064.03848        -206426.98958        1165637.04890         204577.23328        1370214.28218        1370214.28218
        82              41.00000           4402.77197         103896.87440              1.96598        1372424.20333        -209347.99583        1163076.20749         207144.91414        1370221.12164        1370221.12164
        83              41.50000           4403.91949         103477.01923              1.96563        1372781.90483        -212265.32590        1160516.57893         209704.12861        1370220.70754        1370220.70754
        84              42.00000           4404.99802         103066.58072              1.96529        1373118.10150        -215151.11941        1157966.98209         212255.30777        1370222.28986        1370222.28986
        85              42.50000           4405.97421         102669.75360              1.96495        1373422.39962        -217994.31858        1155428.08104         214798.87812        1370226.95916        1370226.95916
        86              43.00000           4406.89835         102285.04433              1.96461        1373710.47007        -220818.06215        1152892.40792         217335.27488        1370227.68280        1370227.68280
        87              43.50000           4407.74525         101912.13165              1.96428        1373974.46388        -223609.96425        1150364.49963         219864.92264        1370229.42227        1370229.42227
        88              44.00000           4408.47556         101550.40854              1.96396        1374202.11338        -226357.55535        1147844.55803         222388.21760        1370232.77563        1370232.77563
        89              44.50000           4409.12427         101198.57535              1.96364        1374404.33046        -229075.05164        1145329.27881         224905.53052        1370234.80933        1370234.80933
        90              45.00000           4409.68349         100857.30335              1.96332        1374578.64961        -231762.64732        1142816.00229         227417.21895        1370233.22123        1370233.22123
        91              45.50000           4410.00535         100527.98564              1.96301        1374678.97743        -234371.12320        1140307.85422         229923.60100        1370231.45522        1370231.45522
        92              46.00000           4409.99773         100209.43120              1.96271        1374676.60165        -236864.17904        1137812.42261         232424.92071        1370237.34332        1370237.34332
        93              46.50000           4409.82399          99900.72704              1.96240        1374622.44497        -239301.05252        1135321.39245         234921.39606        1370242.78851        1370242.78851
        94              47.00000           4409.63452          99596.91937              1.96211        1374563.38336        -241737.37402        1132826.00934         237413.27009        1370239.27943        1370239.27943
        95              47.50000           4409.29799          99298.03786              1.96181        1374458.48198        -244124.39806        1130334.08392         239900.76362        1370234.84755        1370234.84755
        96              48.00000           4408.60599          99012.13621              1.96152        1374242.77084        -246391.16301        1127851.60783         242384.04018        1370235.64800        1370235.64800
        97              48.50000           4407.62550          98740.23607              1.96123        1373937.13606        -248556.46760        1125380.66845         244863.24217        1370243.91062        1370243.91062
        98              49.00000           4406.73845          98472.41429              1.96095        1373660.62471        -250747.76894        1122912.85577         247338.55644        1370251.41221        1370251.41221
        99              49.50000           4406.28454          98200.41034              1.96067        1373519.13445        -253079.01868        1120440.11577         249810.26201        1370250.37778        1370250.37778
       100              50.00000           4406.30401          97925.83502              1.96039        1373525.20442        -255554.30697        1117970.89745         252278.71927        1370249.61672        1370249.61672
       101              50.50000           4406.76454          97649.64819              1.96012        1373668.75812        -258163.03157        1115505.72655         254744.32376        1370250.05032        1370250.05032
       102              51.00000           4407.59520          97375.97313              1.95985        1373927.69038        -260890.93926        1113036.75112         257207.47814        1370244.22926        1370244.22926
       103              51.50000           4408.51942          97107.18388              1.95958        1374215.78563        -263644.51407        1110571.27156         259668.53313        1370239.80469        1370239.80469
       104              52.00000           4409.30249          96846.97943              1.95932        1374459.88329        -266347.28998        1108112.59331         262127.72641        1370240.31972        1370240.31972
       105              52.50000           4409.89222          96592.38717              1.95906        1374643.71334        -268988.60983        1105655.10350         264585.19761        1370240.30111        1370240.30111
       106              53.00000           4410.32296          96336.84217              1.95880        1374777.98413        -271576.04070        1103201.94343         267041.00984        1370242.95327        1370242.95327
       107              53.50000           4410.67337          96080.50703              1.95854        1374887.21314        -274140.06921        1100747.14392         269495.19414        1370242.33807        1370242.33807
       108              54.00000           4410.90314          95824.65802              1.95829        1374958.83586        -276671.08146        1098287.75441         271947.77389        1370235.52829        1370235.52829
       109              54.50000           4410.78436          95575.46049              1.95804        1374921.80837        -279089.30274        1095832.50562         274398.72009        1370231.22571        1370231.22571
       110              55.00000           4410.33089          95331.50184              1.95779        1374780.45478        -281387.22283        1093393.23195         276847.94729        1370241.17924        1370241.17924
       111              55.50000           4409.83209          95089.17300              1.95755        1374624.97065        -283679.21911        1090945.75154         279295.39894        1370241.15048        1370241.15048
       112              56.00000           4409.43938          94854.55884              1.95730        1374502.55575        -286001.57216        1088500.98360         281741.12545        1370242.10904        1370242.10904
       113              56.50000           4409.09579          94613.63177              1.95706        1374395.45197        -288350.38875        1086045.06322         284185.19654        1370230.25976        1370230.25976
       114              57.00000           4408.46981          94380.80748              1.95683        1374200.32081        -290599.42724        1083600.89356         286627.59446        1370228.48803        1370228.48803
       115              57.50000           4407.43907          94157.56105              1.95659        1373879.02302        -292718.67453        1081160.34849         289068.23416        1370228.58265        1370228.58265
       116              58.00000           4406.17027          93938.20498              1.95636        1373483.51411        -294753.59384        1078729.92027         291507.00361        1370236.92388        1370236.92388
       117              58.50000           4405.05676          93715.68256              1.95613        1373136.41397        -296837.52848        1076298.88550         293943.86652        1370242.75201        1370242.75201
       118              59.00000           4404.29687          93487.00077              1.95590        1372899.54057        -299041.88251        1073857.65805         296378.90577        1370236.56382        1370236.56382
       119              59.50000           4403.66380          93258.55445              1.95567        1372702.20014        -301285.87980        1071416.32034         298812.23501        1370228.55535        1370228.55535
       120              60.00000           4402.83838          93034.97706              1.95545        1372444.90251        -303467.13981        1068977.76270         301243.88638        1370221.64908        1370221.64908
       121              60.50000           4401.59885          92816.62886              1.95523        1372058.51997        -305511.07515        1066547.44482         303673.76534        1370221.21017        1370221.21017
       122              61.00000           4399.90721          92606.40065              1.95501        1371531.20530        -307411.23687        1064119.96843         306101.69127        1370221.65970        1370221.65970
       123              61.50000           4397.82581          92402.46320              1.95479        1370882.39290        -309192.37142        1061690.02148         308527.46219        1370217.48367        1370217.48367
       124              62.00000           4395.27407          92209.93520              1.95457        1370086.97098        -310824.45117        1059262.51981         310950.86190        1370213.38170        1370213.38170
       125              62.50000           4392.22910          92030.06292              1.95436        1369137.79730        -312293.28226        1056844.51504         313371.65654        1370216.17159        1370216.17159
       126              63.00000           4388.92527          91856.67091              1.95415        1368107.93311        -313675.23911        1054432.69400         315789.64062        1370222.33462        1370222.33462
       127              63.50000           4385.77444          91673.94068              1.95394        1367125.76144        -315104.25336        1052021.50808         318204.70601        1370226.21409        1370226.21409
       128              64.00000           4383.00263          91480.51923              1.95373        1366261.73789        -316659.31341        1049602.42448         320616.86898        1370219.29346        1370219.29346
       129              64.50000           4380.36434          91281.87356              1.95353        1365439.33431        -318260.25365        1047179.08066         323026.18685        1370205.26751        1370205.26751
       130              65.00000           4377.37733          91092.45986              1.95332        1364508.22953        -319740.41610        1044767.81344         325432.61256        1370200.42599        1370200.42599
       131              65.50000           4373.84657          90921.18829              1.95312        1363407.62795        -321041.87010        1042365.75784         327835.98511        1370201.74295        1370201.74295
       132              66.00000           4369.98257          90762.58662              1.95292        1362203.14784        -322231.31794        1039971.82989         330236.13159        1370207.96148        1370207.96148
       133              66.50000           4366.23244          90603.52679              1.95272        1361034.16401        -323453.17948        1037580.98453         332632.97723        1370213.96175        1370213.96175
       134              67.00000           4363.00462          90430.61121              1.95253        1360027.99548        -324842.44958        1035185.54591         335026.59956        1370212.14547        1370212.14547
       135              67.50000           4360.33280          90245.37845              1.95234        1359195.13905        -326410.14416        1032784.99489         337417.18609        1370202.18098        1370202.18098
       136              68.00000           4357.92060          90054.86172              1.95214        1358443.21338        -328050.49968        1030392.71370         339804.91731        1370197.63102        1370197.63102
       137              68.50000           4355.59717          89867.30337              1.95195        1357718.95693        -329712.22534        1028006.73159         342189.90925        1370196.64085        1370196.64085
       138              69.00000           4353.29726          89683.97118              1.95176        1357002.03411        -331384.57731        1025617.45680         344572.23987        1370189.69667        1370189.69667
       139              69.50000           4350.82628          89506.34366              1.95158        1356231.78479        -332998.42590        1023233.35890         346951.92025        1370185.27915        1370185.27915
       140              70.00000           4348.08589          89338.84995              1.95139        1355377.55532        -334519.22465        1020858.33066         349328.88464        1370187.21531        1370187.21531
       141              70.50000           4345.22989          89176.17194              1.95121        1354487.28886        -336002.87111        1018484.41774         351703.05893        1370187.47667        1370187.47667
       142              71.00000           4342.39256          89012.40294              1.95103        1353602.84114        -337496.28642        1016106.55472         354074.40225        1370180.95697        1370180.95697
       143              71.50000           4339.46858          88849.87891              1.95085        1352691.38225        -338962.28593        1013729.09632         356442.87216        1370171.96848        1370171.96848
       144              72.00000           4336.29121          88692.16456              1.95067        1351700.93883        -340339.66141        1011361.27742         358808.37202        1370169.64944        1370169.64944
       145              72.50000           4332.91749          88537.01317              1.95049        1350649.28930        -341650.42495        1008998.86435         361170.77048        1370169.63483        1370169.63483
       146              73.00000           4329.47379          88381.80331              1.95032        1349575.82391        -342942.89108        1006632.93282         363529.95958        1370162.89241        1370162.89241
       147              73.50000           4325.89788          88230.19457              1.95015        1348461.14956        -344191.06980        1004270.07976         365885.84877        1370155.92853        1370155.92853
       148              74.00000           4322.10471          88083.22801              1.94998        1347278.74769        -345365.08435        1001913.66334         368238.32410        1370151.98745        1370151.98745
       149              74.50000           4318.09098          87937.23309              1.94981        1346027.59367        -346468.59824         999558.99544         370587.24007        1370146.23550        1370146.23550
       150              75.00000           4313.81343          87794.23270              1.94964        1344694.20627        -347485.02515         997209.18112         372932.42700        1370141.60812        1370141.60812
       151              75.50000           4309.28183          87656.88656              1.94947        1343281.62231        -348415.43922         994866.18309         375273.70949        1370139.89258        1370139.89258
       152              76.00000           4304.64251          87522.16854              1.94931        1341835.46101        -349306.49321         992528.96780         377610.94705        1370139.91485        1370139.91485
       153              76.50000           4300.07707          87383.50888              1.94915        1340412.33158        -350219.93800         990192.39358         379944.06478        1370136.45836        1370136.45836
       154              77.00000           4295.64868          87240.66822              1.94898        1339031.92076        -351173.01001         987858.91075         382273.04587        1370131.95662        1370131.95662
       155              77.50000           4291.31929          87094.56691              1.94882        1337682.37112        -352153.72916         985528.64196         384597.89680        1370126.53876        1370126.53876
       156              78.00000           4287.03280          86948.18731              1.94867        1336346.19352        -353143.15946         983203.03407         386918.61888        1370121.65294        1370121.65294
       157              78.50000           4282.76456          86799.80464              1.94851        1335015.70777        -354133.76868         980881.93909         389235.20076        1370117.13985        1370117.13985
       158              79.00000           4278.47206          86656.67280              1.94836        1333677.65767        -355115.07272         978562.58494         391547.62363        1370110.20857        1370110.20857
       159              79.50000           4274.08748          86520.47246              1.94820        1332310.90218        -356062.21188         976248.69030         393855.86179        1370104.55210        1370104.55210
       160              80.00000           4269.57969          86390.06664              1.94805        1330905.74394        -356964.25333         973941.49060         396159.86529        1370101.35589        1370101.35589
       161              80.50000           4265.00352          86266.07269              1.94790        1329479.26566        -357839.95785         971639.30781         398459.58489        1370098.89270        1370098.89270
       162              81.00000           4260.48092          86140.78604              1.94775        1328069.49021        -358728.59268         969340.89753         400755.00314        1370095.90067        1370095.90067
       163              81.50000           4256.08548          86014.78585              1.94760        1326699.35169        -359656.26532         967043.08637         403046.14051        1370089.22688        1370089.22688
       164              82.00000           4251.75302          85888.49784              1.94746        1325348.84487        -360601.74662         964747.09825         405333.03182        1370080.13007        1370080.13007
       165              82.50000           4247.39396          85765.24236              1.94731        1323990.04742        -361527.16481         962462.88261         407615.68575        1370078.56836        1370078.56836
       166              83.00000           4243.16978          85639.23151              1.94717        1322673.29136        -362490.52131         960182.77005         409894.12412        1370076.89417        1370076.89417
       167              83.50000           4239.18727          85510.99718              1.94703        1321431.87304        -363536.09316         957895.77988         412168.42796        1370064.20784        1370064.20784
       168              84.00000           4235.18615          85384.32283              1.94689        1320184.65023        -364572.22335         955612.42688         414438.65973        1370051.08661        1370051.08661
       169              84.50000           4230.94614          85262.16244              1.94675        1318862.96145        -365512.52907         953350.43238         416704.77201        1370055.20439        1370055.20439
       170              85.00000           4226.73367          85137.08264              1.94662        1317549.85824        -366462.40022         951087.45801         418966.70249        1370054.16050        1370054.16050
       171              85.50000           4222.75143          85013.06611              1.94648        1316308.52135        -367487.52283         948820.99852         421224.49080        1370045.48932        1370045.48932
       172              86.00000           4218.80116          84889.71434              1.94635        1315077.14957        -368526.60636         946550.54321         423478.20007        1370028.74328        1370028.74328
       173              86.50000           4214.50511          84772.34253              1.94621        1313737.99404        -369442.02816         944295.96588         425727.76130        1370023.72718        1370023.72718
       174              87.00000           4209.82317          84663.68684              1.94608        1312278.54741        -370223.98112         942054.56629         427972.99425        1370027.56054        1370027.56054
       175              87.50000           4205.11043          84556.69972              1.94595        1310809.50062        -370996.11783         939813.38279         430213.76791        1370027.15070        1370027.15070
       176              88.00000           4200.59602          84443.32665              1.94583        1309402.27593        -371833.07926         937569.19666         432450.07122        1370019.26788        1370019.26788
       177              88.50000           4196.23486          84325.47655              1.94570        1308042.82469        -372713.45088         935329.37381         434681.94248        1370011.31629        1370011.31629
       178              89.00000           4191.95284          84205.38640              1.94558        1306708.03931        -373609.35748         933098.68183         436909.41025        1370008.09208        1370008.09208
       179              89.50000           4187.81207          84081.74253              1.94545        1305417.28751        -374547.34528         930869.94223         439132.50711        1370002.44934        1370002.44934
       180              90.00000           4183.79448          83958.70134              1.94533        1304164.93092        -375524.42672         928640.50420         441351.28528        1369991.78947        1369991.78947
       181              90.50000           4179.66332          83837.14583              1.94521        1302877.17136        -376462.08909         926415.08228         443565.74766        1369980.82994        1369980.82994
       182              91.00000           4175.22549          83724.56848              1.94509        1301493.81960        -377290.69960         924203.12000         445775.79249        1369978.91249        1369978.91249
       183              91.50000           4170.54954          83617.73655              1.94497        1300036.24167        -378042.81034         921993.43133         447981.27681        1369974.70813        1369974.70813
       184              92.00000           4165.69613          83513.77185              1.94485        1298523.34540        -378739.37565         919783.96975         450182.06631        1369966.03606        1369966.03606
       185              92.50000           4160.58239          83414.38152              1.94474        1296929.29772        -379350.34290         917578.95482         452378.01169        1369956.96651        1369956.96651
       186              93.00000           4155.12458          83321.61004              1.94463        1295227.99978        -379846.78497         915381.21481         454568.92021        1369950.13502        1369950.13502
       187              93.50000           4149.34999          83236.09856              1.94451        1293427.95625        -380237.82322         913190.13303         456754.57943        1369944.71246        1369944.71246
       188              94.00000           4143.40587          83156.04247              1.94440        1291575.06647        -380567.45539         911007.61108         458934.81394        1369942.42502        1369942.42502
       189              94.50000           4137.63260          83072.40106              1.94429        1289775.43050        -380941.79271         908833.63780         461109.56103        1369943.19883        1369943.19883
       190              95.00000           4132.37025          82979.04214              1.94418        1288135.06067        -381477.99853         906657.06214         463278.92796        1369935.99010        1369935.99010
       191              95.50000           4127.72749          82875.74662              1.94408        1286687.82897        -382202.91008         904484.91889         465443.16278        1369928.08166        1369928.08166
       192              96.00000           4123.62998          82760.05761              1.94397        1285410.56104        -383096.75839         902313.80265         467602.55817        1369916.36082        1369916.36082
       193              96.50000           4119.85063          82640.92272              1.94387        1284232.46887        -384083.12348         900149.34539         469757.36230        1369906.70769        1369906.70769
       194              97.00000           4116.16814          82523.62571              1.94377        1283084.56814        -385094.84940         897989.71874         471907.73766        1369897.45640        1369897.45640
       195              97.50000           4112.38602          82414.73621              1.94366        1281905.61185        -386072.69210         895832.91975         474053.74892        1369886.66867        1369886.66867
       196              98.00000           4108.31831          82316.87787              1.94356        1280637.63433        -386955.82099         893681.81334         476195.36006        1369877.17341        1369877.17341
       197              98.50000           4103.93705          82228.36629              1.94346        1279271.91629        -387727.69519         891544.22110         478332.45826        1369876.67936        1369876.67936
       198              99.00000           4099.50620          82141.52207              1.94337        1277890.73990        -388481.73064         889409.00926         480464.95467        1369873.96393        1369873.96393
       199              99.50000           4095.21758          82050.99764              1.94327        1276553.89787        -389285.69351         887268.20436         482592.85062        1369861.05498        1369861.05498
       200             100.00000           4090.86381          81960.06261              1.94318        1275196.74764        -390067.87704         885128.87059         484716.14683        1369845.01742        1369845.01742
       201             100.50000           4086.10720          81878.06777              1.94308        1273714.02684        -390711.04801         883002.97883         486834.72052        1369837.69935        1369837.69935
       202             101.00000           4081.01379          81803.49406              1.94299        1272126.31784        -391232.25997         880894.05787         488948.37332        1369842.43119        1369842.43119
       203             101.50000           4076.09629          81721.52039              1.94290        1270593.44377        -391808.71600         878784.72777         491057.01754        1369841.74531        1369841.74531
       204             102.00000           4071.66558          81626.39514              1.94281        1269212.31081        -392546.54847         876665.76234         493160.75541        1369826.51776        1369826.51776
       205             102.50000           4067.52420          81522.66362              1.94272        1267921.36722        -393369.26421         874552.10301         495259.74401        1369811.84702        1369811.84702
       206             103.00000           4063.38674          81420.68086              1.94264        1266631.64545        -394177.77015         872453.87529         497354.05355        1369807.92884        1369807.92884
       207             103.50000           4059.29186          81316.80960              1.94255        1265355.19787        -394998.56383         870356.63404         499443.70093        1369800.33496        1369800.33496
       208             104.00000           4055.21718          81217.70400              1.94247        1264085.04553        -395822.36024         868262.68528         501528.70323        1369791.38852        1369791.38852
       209             104.50000           4051.02669          81128.18133              1.94238        1262778.79238        -396605.51980         866173.27258         503609.05072        1369782.32330        1369782.32330
       210             105.00000           4046.58119          81041.03968              1.94230        1261393.04961        -397307.87973         864085.16987         505684.65924        1369769.82912        1369769.82912
       211             105.50000           4041.78976          80962.57622              1.94222        1259899.47413        -397885.35894         862014.11518         507755.36570        1369769.48088        1369769.48088
       212             106.00000           4036.90591          80885.67145              1.94214        1258377.08915        -398430.27767         859946.81148         509821.03119        1369767.84267        1369767.84267
       213             106.50000           4032.18009          80803.33791              1.94206        1256903.96510        -399025.48486         857878.48023         511881.62484        1369760.10508        1369760.10508
       214             107.00000           4027.64123          80716.22191              1.94199        1255489.11848        -399676.22253         855812.89595         513937.18993        1369750.08588        1369750.08588
       215             107.50000           4023.14893          80626.29211              1.94191        1254088.78638        -400337.70319         853751.08319         515987.75881        1369738.84200        1369738.84200
       216             108.00000           4018.54173          80538.87936              1.94184        1252652.63842        -400955.30963         851697.32878         518033.29890        1369730.62769        1369730.62769
       217             108.50000           4013.78804          80456.41513              1.94177        1251170.82841        -401519.97844         849650.84997         520073.73160        1369724.58157        1369724.58157
       218             109.00000           4008.95775          80378.16347              1.94170        1249665.13839        -402055.85235         847609.28604         522108.98335        1369718.26939        1369718.26939
       219             109.50000           4004.11711          80299.59707              1.94163        1248156.22195        -402584.44460         845571.77735         524139.00893        1369710.78628        1369710.78628
       220             110.00000           3999.28643          80219.84949              1.94156        1246650.40976        -403111.01897         843539.39080         526163.78051        1369703.17130        1369703.17130
       221             110.50000           3994.47965          80139.76226              1.94149        1245152.05067        -403639.33808         841512.71259         528183.28094        1369695.99354        1369695.99354
       222             111.00000           3989.71478          80060.54352              1.94142        1243666.75266        -404177.99954         839488.75313         530197.50651        1369686.25964        1369686.25964
       223             111.50000           3985.01582          79981.12011              1.94136        1242202.00158        -404727.26289         837474.73869         532206.46953        1369681.20822        1369681.20822
       224             112.00000           3980.47064          79898.52097              1.94130        1240785.18538        -405321.34765         835463.83772         534210.21208        1369674.04981        1369674.04981
       225             112.50000           3976.17371          79818.64821              1.94123        1239445.75546        -405988.52432         833457.23114         536208.83106        1369666.06220        1369666.06220
       226             113.00000           3972.09155          79740.61544              1.94117        1238173.27254        -406728.48116         831444.79138         538202.46135        1369647.25273        1369647.25273
       227             113.50000           3967.91290          79665.49383              1.94111        1236870.70930        -407426.47145         829444.23785         540191.16441        1369635.40226        1369635.40226
       228             114.00000           3963.44430          79603.99742              1.94105        1235477.76574        -408022.20399         827455.56175         542174.87549        1369630.43724        1369630.43724
       229             114.50000           3958.92653          79548.54939              1.94100        1234069.49387        -408591.28280         825478.21107         544153.53205        1369631.74313        1369631.74313
       230             115.00000           3954.76278          79483.82089              1.94094        1232771.57783        -409274.29261         823497.28522         546127.21235        1369624.49756        1369624.49756
       231             115.50000           3951.05916          79408.57995              1.94089        1231617.09203        -410103.67336         821513.41867         548096.12137        1369609.54005        1369609.54005
       232             116.00000           3947.52349          79327.16610              1.94083        1230514.95987        -410980.95049         819534.00938         550060.43960        1369594.44898        1369594.44898
       233             116.50000           3943.81221          79253.80039              1.94078        1229358.08688        -411794.34803         817563.73885         552020.20278        1369583.94164        1369583.94164
       234             117.00000           3939.75518          79188.58413              1.94073        1228093.43524        -412494.72946         815598.70578         553975.31603        1369574.02181        1369574.02181
       235             117.50000           3935.33769          79130.28836              1.94068        1226716.42365        -413071.97140         813644.45226         555925.61181        1369570.06406        1369570.06406
       236             118.00000           3930.73683          79077.95127              1.94063        1225282.25229        -413587.11093         811695.14137         557870.93793        1369566.07929        1369566.07929
       237             118.50000           3926.22955          79019.40551              1.94059        1223877.24970        -414125.85229         809751.39741         559811.24052        1369562.63793        1369562.63793
       238             119.00000           3921.99496          78951.07024              1.94054        1222557.25094        -414753.05850         807804.19244         561746.57325        1369550.76569        1369550.76569
       239             119.50000           3917.88134          78885.36798              1.94050        1221274.96312        -415417.92565         805857.03747         563677.01531        1369534.05278        1369534.05278
       240             120.00000           3913.57425          78823.87742              1.94045        1219932.36389        -416010.68054         803921.68334         565602.55341        1369524.23675        1369524.23675
       241             120.50000           3909.06228          78766.79108              1.94041        1218525.90089        -416523.70510         802002.19579         567523.08608        1369525.28187        1369525.28187
       242             121.00000           3904.65595          78709.13525              1.94037        1217152.36753        -417072.26799         800080.09954         569438.57260        1369518.67214        1369518.67214
       243             121.50000           3900.43290          78646.89802              1.94033        1215835.96438        -417681.26558         798154.69880         571349.06930        1369503.76810        1369503.76810
       244             122.00000           3896.18460          78582.52761              1.94029        1214511.69273        -418273.16763         796238.52510         573254.60857        1369493.13367        1369493.13367
       245             122.50000           3891.76081          78521.49572              1.94026        1213132.71670        -418804.29764         794328.41907         575155.13516        1369483.55422        1369483.55422
       246             123.00000           3887.13870          78466.22646              1.94022        1211691.92158        -419267.34341         792424.57817         577050.54498        1369475.12314        1369475.12314
       247             123.50000           3882.37870          78416.49782              1.94019        1210208.14317        -419678.94848         790529.19469         578940.73567        1369469.93036        1369469.93036
       248             124.00000           3877.67614          78366.07044              1.94015        1208742.26830        -420103.13401         788639.13430         580825.66342        1369464.79772        1369464.79772
       249             124.50000           3873.23556          78309.23870              1.94012        1207358.06087        -420607.39774         786750.66313         582705.38474        1369456.04786        1369456.04786
       250             125.00000           3869.09214          78242.83578              1.94009        1206066.47846        -421203.00093         784863.47753         584580.02670        1369443.50423        1369443.50423
       251             125.50000           3865.09769          78172.09022              1.94006        1204821.33626        -421839.38769         782981.94858         586449.70155        1369431.65012        1369431.65012
       252             126.00000           3861.07905          78100.79810              1.94003        1203568.65481        -422461.67647         781106.97834         588314.45021        1369421.42855        1369421.42855
       253             126.50000           3856.94602          78032.44359              1.94001        1202280.31367        -423042.02472         779238.28895         590174.24441        1369412.53336        1369412.53336
       254             127.00000           3852.67950          77969.27224              1.93998        1200950.36117        -423576.66995         777373.69122         592029.02022        1369402.71144        1369402.71144
       255             127.50000           3848.28712          77910.20628              1.93995        1199581.17748        -424065.19812         775515.97936         593878.70296        1369394.68232        1369394.68232
       256             128.00000           3843.87711          77852.34628              1.93993        1198206.49507        -424540.25438         773666.24069         595723.23900        1369389.47969        1369389.47969
       257             128.50000           3839.64976          77790.45725              1.93991        1196888.75531        -425070.51291         771818.24240         597562.64868        1369380.89107        1369380.89107
       258             129.00000           3835.66270          77723.11035              1.93989        1195645.91605        -425677.02890         769968.88714         599397.02308        1369365.91022        1369365.91022
       259             129.50000           3831.75397          77654.92286              1.93987        1194427.49226        -426300.84890         768126.64336         601226.43970        1369353.08305        1369353.08305
       260             130.00000           3827.83458          77587.60962              1.93985        1193205.74767        -426909.38043         766296.36723         603050.91990        1369347.28714        1369347.28714
       261             130.50000           3824.04747          77514.86073              1.93983        1192025.23621        -427555.68967         764469.54654         604870.49461        1369340.04114        1369340.04114
       262             131.00000           3820.56234          77427.89538              1.93981        1190938.85756        -428291.92538         762646.93218         606685.26717        1369332.19935        1369332.19935
       263             131.50000           3817.31722          77331.49780              1.93980        1189927.29423        -429108.14469         760819.14954         608495.36757        1369314.51711        1369314.51711
       264             132.00000           3813.93533          77239.42510              1.93979        1188873.09734        -429878.11971         758994.97763         610300.82258        1369295.80021        1369295.80021
       265             132.50000           3810.00300          77155.90077              1.93977        1187647.31804        -430462.94930         757184.36874         612101.45637        1369285.82511        1369285.82511
       266             133.00000           3805.47656          77085.98584              1.93976        1186236.34372        -430848.10448         755388.23924         613896.94627        1369285.18551        1369285.18551
       267             133.50000           3800.70005          77021.93782              1.93975        1184747.42059        -431152.01738         753595.40321         615687.01310        1369282.41631        1369282.41631
       268             134.00000           3796.05688          76954.34298              1.93974        1183300.06080        -431491.97078         751808.09003         617471.54581        1369279.63583        1369279.63583
       269             134.50000           3791.82278          76873.98742              1.93974        1181980.21357        -431961.01198         750019.20159         619250.60814        1369269.80973        1369269.80973
       270             135.00000           3787.97837          76785.50032              1.93973        1180781.84172        -432551.68323         748230.15848         621024.35115        1369254.50964        1369254.50964
       271             135.50000           3784.27079          76694.82585              1.93973        1179626.12198        -433177.42332         746448.69866         622792.88540        1369241.58406        1369241.58406
       272             136.00000           3780.46659          76611.01528              1.93972        1178440.28141        -433765.37483         744674.90658         624556.21181        1369231.11839        1369231.11839
       273             136.50000           3776.52973          76534.11629              1.93972        1177213.08998        -434300.38074         742912.70924         626314.26337        1369226.97261        1369226.97261
       274             137.00000           3772.68616          76458.62776              1.93972        1176014.98159        -434857.47542         741157.50617         628067.01352        1369224.51969        1369224.51969
       275             137.50000           3769.17638          76378.36356              1.93972        1174920.91726        -435524.58450         739396.33276         629814.55433        1369210.88709        1369210.88709
       276             138.00000           3765.85045          76295.07417              1.93973        1173884.16547        -436247.20596         737636.95951         631557.01491        1369193.97442        1369193.97442
       277             138.50000           3762.36031          76217.82980              1.93973        1172796.22355        -436908.72533         735887.49822         633294.40891        1369181.90713        1369181.90713
       278             139.00000           3758.57350          76148.13851              1.93973        1171615.80640        -437464.90183         734150.90457         635026.62286        1369177.52743        1369177.52743
       279             139.50000           3754.60917          76080.93101              1.93974        1170380.05215        -437962.93801         732417.11414         636753.52208        1369170.63622        1369170.63622
       280             140.00000           3750.54493          76015.50183              1.93975        1169113.15490        -438428.61484         730684.54006         638475.00650        1369159.54655        1369159.54655
       281             140.50000           3746.35620          75952.19261              1.93976        1167807.45199        -438845.80675         728961.64525         640190.98413        1369152.62938        1369152.62938
       282             141.00000           3742.13177          75889.85869              1.93977        1166490.61976        -439244.09118         727246.52857         641901.37605        1369147.90463        1369147.90463
       283             141.50000           3738.05286          75823.92602              1.93978        1165219.14952        -439685.53865         725533.61087         643606.17291        1369139.78378        1369139.78378
       284             142.00000           3734.17330          75754.57627              1.93980        1164009.82019        -440187.80269         723822.01750         645305.43336        1369127.45087        1369127.45087
       285             142.50000           3730.36661          75684.63248              1.93981        1162823.20602        -440707.49021         722115.71581         646999.21120        1369114.92700        1369114.92700
       286             143.00000           3726.50219          75618.08619              1.93983        1161618.59692        -441199.04422         720419.55270         648687.50228        1369107.05498        1369107.05498
       287             143.50000           3722.59174          75555.71589              1.93985        1160399.63880        -441671.01325         718728.62556         650370.27164        1369098.89720        1369098.89720
       288             144.00000           3718.67074          75496.41427              1.93987        1159177.39020        -442136.40978         717040.98043         652047.49502        1369088.47545        1369088.47545
       289             144.50000           3714.72068          75439.30929              1.93989        1157946.08452        -442586.33662         715359.74790         653719.15370        1369078.90159        1369078.90159
       290             145.00000           3710.75417          75384.66050              1.93991        1156709.65211        -443025.16200         713684.49011         655385.22763        1369069.71774        1369069.71774
       291             145.50000           3706.80761          75330.08926              1.93994        1155479.43710        -443465.77840         712013.65870         657045.71064        1369059.36933        1369059.36933
       292             146.00000           3702.85909          75274.76849              1.93997        1154248.61192        -443902.12937         710346.48254         658700.60220        1369047.08474        1369047.08474
       293             146.50000           3698.86870          75219.89160              1.93999        1153004.73244        -444315.03257         708689.69986         660349.88585        1369039.58572        1369039.58572
       294             147.00000           3694.83879          75167.37540              1.94002        1151748.53676        -444713.42340         707035.11336         661993.53269        1369028.64605        1369028.64605
       295             147.50000           3690.75615          75122.76071              1.94005        1150475.90309        -445087.38076         705388.52233         663631.50772        1369020.03005        1369020.03005
       296             148.00000           3686.62029          75081.21117              1.94009        1149186.68047        -445442.18107         703744.49940         665263.77758        1369008.27698        1369008.27698
       297             148.50000           3682.41988          75041.72462              1.94012        1147877.33825        -445765.98026         702111.35799         666890.30822        1369001.66621        1369001.66621
       298             149.00000           3678.21673          75003.94335              1.94015        1146567.13818        -446085.11499         700482.02319         668511.07744        1368993.10063        1368993.10063
       299             149.50000           3674.07529          74965.86007              1.94019        1145276.17771        -446417.99729         698858.18042         670126.09754        1368984.27796        1368984.27796
       300             150.00000           3670.01932          74924.87385              1.94023        1144011.85743        -446773.14522         697238.71221         671735.40979        1368974.12201        1368974.12201
Loop time of 1118.74 on 1 procs for 300 steps with 104576 atoms

Performance: 0.012 ns/day, 2071.745 hours/ns, 0.268 timesteps/s, 28.043 katom-step/s
99.2% CPU use with 1 MPI tasks x no OpenMP threads

MPI task timing breakdown:
Section |  min time  |  avg time  |  max time  |%varavg| %total
---------------------------------------------------------------
Pair    | 1083.9     | 1083.9     | 1083.9     |   0.0 | 96.89
Neigh   | 32.596     | 32.596     | 32.596     |   0.0 |  2.91
Comm    | 0.34669    | 0.34669    | 0.34669    |   0.0 |  0.03
Output  | 0.57451    | 0.57451    | 0.57451    |   0.0 |  0.05
Modify  | 1.1058     | 1.1058     | 1.1058     |   0.0 |  0.10
Other   |            | 0.1814     |            |       |  0.02

Nlocal:         104576 ave      104576 max      104576 min
Histogram: 1 0 0 0 0 0 0 0 0 0
Nghost:          48833 ave       48833 max       48833 min
Histogram: 1 0 0 0 0 0 0 0 0 0
Neighs:              0 ave           0 max           0 min
Histogram: 1 0 0 0 0 0 0 0 0 0
FullNghs:  3.67157e+06 ave 3.67157e+06 max 3.67157e+06 min
Histogram: 1 0 0 0 0 0 0 0 0 0

Total # of neighbors = 3671568
Ave neighs/atom = 35.109088
Neighbor list builds = 30
Dangerous builds = 0
Total wall time: 0:18:46
