LAMMPS (29 Aug 2024 - Update 1)
########################################
########################################
# NPT-MD (thermalization) for a ~3000 C atom system with ~140000 Ar atoms (4 nm CNP)
# DO NOT RUN THIS SCRIPT WITH MORE THAN 224 PROCS!!! There will be domain decomposition errors
# With a 0.5 fs timestep, can get .75 ns/day on 224 procs
########################################
########################################


##########################################
# USER-SPECIFIED VARIABLES
##########################################

variable tstep               equal  0.5                                        # timestep in fs
variable run_steps           equal  100                                        # Number of steps to run
variable temperature         equal  2500                                       # Temperature (K)
variable pressure            equal  78953.8                                    # Target pressure (atm)

variable io_freq             equal  1                                          # Frequency of dumping trajectory (steps)

variable data_file           string CNP_40Ang_2500K_8GPa.data.in	       # Data file for initial structure
variable restart_file        string npt.restart                                # Restart file
variable param_file          string ../../../../serial_interface/tests/force_fields/published_params.Carbon-2.0.Small.2+3+4b.Tersoff.txt


########################################
# GENERAL CONTROLS
########################################

units           real                          # Required for CHIMES pair style
newton          on                            # Required for CHIMES pair style
atom_style      atomic                        # Required for CHIMES pair style
atom_modify     sort 0 0.0                    # Required for CHIMES pair style
atom_modify     map array                     # Required for CHIMES pair style

neighbor        1.5 bin
neigh_modify    delay 0 every 1 check yes     # Required for CHIMES pair style


########################################
# INITIALIZATION CONTROLS
########################################

read_data       ${data_file}
read_data       CNP_40Ang_2500K_8GPa.data.in
Reading data file ...
  orthogonal box = (0 0 0) to (150 150 150)
  3 by 3 by 4 MPI processor grid
  reading atoms ...
  104576 atoms
  read_data CPU = 0.231 seconds

velocity        all create ${temperature} 1234 dist gaussian mom yes rot yes loop all
velocity        all create 2500 1234 dist gaussian mom yes rot yes loop all

group carbon type 1    # group carbon atoms (for load balancing)
3359 atoms in group carbon
group argon  type 2    # group argon  atoms
101217 atoms in group argon


########################################
# FORCE FIELD CONTROLS
########################################

pair_style      hybrid/overlay chimesFF momb 9.0 0.75 20.0 lj/cut 10.0            # Use ChIMES, momb and LJ potentials
pair_coeff      * * chimesFF ${param_file}                                        # Use ChIMES for C-C
pair_coeff      * * chimesFF ../../../../serial_interface/tests/force_fields/published_params.Carbon-2.0.Small.2+3+4b.Tersoff.txt                                        
pair_coeff      1 1 momb 0.0 1.0 1.0 418.26 2.904                                 # Use momb for D2 correction (only for the small carbon model)
pair_coeff      1 2 lj/cut 0.25   3.5                                             # Use LJ for C-Ar ; calculated with L-B combining rules
pair_coeff      2 2 lj/cut 0.25   3.5                                             # Use LJ for Ar-Ar

# Note:
# LJ params for Ar:    0.25 3.5             (epsilon: Kcal/mol, sigma: Angstrom, treated as general LJ particles instead of actual Ar atoms)
# LJ params for Ar-C:  Manually set to make the elements immiscibles


########################################
# RESTART CONTROLS
########################################

#restart         100 npt.a.restart npt.b.restart	# Write restart files


########################################
# RUN, DUMP, AND THERMO CONTROLS
########################################

##### Set the ensemble

variable temp_damp  equal  v_tstep*100.0	# Temperature damping coefficient
variable press_damp equal  v_tstep*1000.0	# Pressure damping coefficient

fix             1 all npt temp ${temperature} ${temperature} ${temp_damp} iso ${pressure} ${pressure} ${press_damp}
fix             1 all npt temp 2500 ${temperature} ${temp_damp} iso ${pressure} ${pressure} ${press_damp}
fix             1 all npt temp 2500 2500 ${temp_damp} iso ${pressure} ${pressure} ${press_damp}
fix             1 all npt temp 2500 2500 50 iso ${pressure} ${pressure} ${press_damp}
fix             1 all npt temp 2500 2500 50 iso 78953.8 ${pressure} ${press_damp}
fix             1 all npt temp 2500 2500 50 iso 78953.8 78953.8 ${press_damp}
fix             1 all npt temp 2500 2500 50 iso 78953.8 78953.8 500

##### Enable load balancing since LJ Ar-Ar and C-Ar interactions are WAY cheaper than C-C interactions

comm_style 	tiled
fix 		2 all balance 10 0.25 rcb weight time 0.75 # This should generally work well for any system that requires load balancing

##### Define thermo output

variable e_ensemble  equal f_1
variable e_conserve  equal ke+pe+v_e_ensemble

thermo_style         custom step time temp press density ke pe etotal v_e_ensemble v_e_conserve econserve
thermo_modify        line one format float %20.5f flush yes

thermo               ${io_freq}
thermo               1

##### Print separate dump files for the whole system and just the particle

#dump            dump_1 all custom ${io_freq} traj.lammpstrj id type element xu yu zu vx vy vz
#dump_modify     dump_1 sort id element C Ar

#dump            dump_2 carbon custom ${io_freq} traj.C.lammpstrj id type element xu yu zu vx vy vz
#dump_modify     dump_2 sort id element C Ar

##### Run the simulation

timestep        ${tstep}
timestep        0.5
run             ${run_steps}
run             100

CITE-CITE-CITE-CITE-CITE-CITE-CITE-CITE-CITE-CITE-CITE-CITE-CITE

Your simulation uses code contributions which should be cited:

- Type Label Framework: https://doi.org/10.1021/acs.jpcb.3c08419

@Article{Gissinger24,
 author = {Jacob R. Gissinger, Ilia Nikiforov, Yaser Afshar, Brendon Waters, Moon-ki Choi, Daniel S. Karls, Alexander Stukowski, Wonpil Im, Hendrik Heinz, Axel Kohlmeyer, and Ellad B. Tadmor},
 title = {Type Label Framework for Bonded Force Fields in LAMMPS},
 journal = {J. Phys. Chem. B},
 year =    2024,
 volume =  128,
 number =  13,
 pages =   {3282â€“-3297}
}

- Pair style momb: doi:10.1021/jp412098n

@Article{pair_momb_2015,
title = {A Force Field for Describing the Polyvinylpyrrolidone-Mediated
    Solution-Phase Synthesis of Shape-Selective {Ag} Nanoparticles},
volume = {118},
number = {6},
url = {https://doi.org/10.1021/jp412098n},
doi = {10.1021/jp412098n},
journal = {J.~Phys.\ Chem.~C},
author = {Zhou, Ya and Wissam A. Saidi and Kristen A. Fichthorn},
year = {2014},
pages = {3366--3374}
}

CITE-CITE-CITE-CITE-CITE-CITE-CITE-CITE-CITE-CITE-CITE-CITE-CITE

Generated 0 of 1 mixed pair_coeff terms from geometric mixing rule
Neighbor list info ...
  update: every = 1 steps, delay = 0 steps, check = yes
  max neighbors/atom: 2000, page size: 100000
  master list distance cutoff = 11.5
  ghost atom cutoff = 11.5
  binsize = 5.75, bins = 27 27 27
  4 neighbor lists, perpetual/occasional/extra = 4 0 0
  (1) pair chimesFF, perpetual
      attributes: full, newton on, ghost, cut 6.5
      pair build: full/bin/ghost
      stencil: full/ghost/bin/3d
      bin: standard
  (2) pair momb, perpetual, skip trim from (4)
      attributes: half, newton on, cut 10.5
      pair build: skip/trim
      stencil: none
      bin: none
  (3) pair lj/cut, perpetual, skip from (4)
      attributes: half, newton on
      pair build: skip
      stencil: none
      bin: none
  (4) neighbor class addition, perpetual
      attributes: half, newton on
      pair build: half/bin/atomonly/newton
      stencil: half/bin/3d
      bin: standard
Per MPI rank memory allocation (min/avg/max) = 9.421 | 11.12 | 13.35 Mbytes
   Step          Time           Temp          Press         Density         KinEng         PotEng         TotEng      v_e_ensemble   v_e_conserve    Econserve   
         0               0.00000           2500.00000         162897.22719              2.00926         779295.52745         590687.59812        1369983.12557              0.00000        1369983.12557        1369983.12557
         1               0.50000           2500.85910         162870.56626              2.00923         779563.32608         590324.43240        1369887.75848             95.63919        1369983.39767        1369983.39767
         2               1.00000           2502.71891         162809.47374              2.00916         780143.06140         589458.52633        1369601.58772            382.47993        1369984.06765        1369984.06765
         3               1.50000           2505.59887         162713.54851              2.00904         781040.79797         588084.36157        1369125.15954            860.30244        1369985.46197        1369985.46197
         4               2.00000           2509.53163         162582.32134              2.00887         782266.70947         586192.00246        1368458.71193           1528.70336        1369987.41529        1369987.41529
         5               2.50000           2514.56254         162414.89137              2.00866         783834.93765         583768.04495        1367602.98260           2387.01939        1369990.00199        1369990.00199
         6               3.00000           2520.74928         162210.23234              2.00840         785763.45706         580795.14709        1366558.60415           3434.22120        1369992.82535        1369992.82535
         7               3.50000           2528.16160         161967.08044              2.00809         788074.00991         577253.43970        1365327.44961           4668.78065        1369996.23026        1369996.23026
         8               4.00000           2536.88033         161684.23907              2.00773         790791.79851         573119.85947        1363911.65798           6088.51517        1370000.17314        1370000.17314
         9               4.50000           2546.99615         161360.37245              2.00733         793945.08209         568368.87664        1362313.95873           7690.41493        1370004.37366        1370004.37366
        10               5.00000           2558.60840         160994.11643              2.00688         797564.83357         562974.03438        1360538.86795           9470.45907        1370009.32702        1370009.32702
        11               5.50000           2571.82306         160584.16635              2.00639         801684.08267         556906.75781        1358590.84048          11423.43222        1370014.27270        1370014.27270
        12               6.00000           2586.75036         160129.92309              2.00586         806337.19439         550139.60035        1356476.79474          13542.75882        1370019.55356        1370019.55356
        13               6.50000           2603.50141         159631.30464              2.00528         811558.80299         542646.07494        1354204.87793          15820.37156        1370025.24950        1370025.24950
        14               7.00000           2622.18330         159088.33991              2.00467         817382.28837         534401.91359        1351784.20196          18246.62428        1370030.82623        1370030.82623
        15               7.50000           2642.89430         158501.58984              2.00403         823838.28284         525387.66776        1349225.95060          20810.26926        1370036.21985        1370036.21985
        16               8.00000           2665.71887         157871.94925              2.00335         830953.11702         515589.15039        1346542.26741          23498.51775        1370040.78515        1370040.78515
        17               8.50000           2690.72225         157201.30673              2.00265         838747.12451         505001.35132        1343748.47584          26297.19861        1370045.67445        1370045.67445
        18               9.00000           2717.94501         156491.73238              2.00192         847232.95702         493625.84270        1340858.79973          29191.01718        1370049.81691        1370049.81691
        19               9.50000           2747.39787         155745.46162              2.00117         856413.94882         481475.20570        1337889.15452          32163.90283        1370053.05735        1370053.05735
        20              10.00000           2779.05770         154965.28263              2.00041         866282.89310         468573.48655        1334856.37965          35199.44058        1370055.82023        1370055.82023
        21              10.50000           2812.86794         154153.45013              1.99963         876822.16243         454954.88414        1331777.04657          38281.35169        1370058.39826        1370058.39826
        22              11.00000           2848.74216         153312.24465              1.99886         888004.80857         440661.67133        1328666.47990          41393.98697        1370060.46687        1370060.46687
        23              11.50000           2886.56499         152444.03852              1.99808         899794.87368         425744.45264        1325539.32632          44522.80175        1370062.12806        1370062.12806
        24              12.00000           2926.18790         151551.91676              1.99730         912146.05742         410261.83937        1322407.89679          47654.76751        1370062.66430        1370062.66430
        25              12.50000           2967.42552         150639.33599              1.99653         925000.57399         394283.53826        1319284.11224          50778.67282        1370062.78506        1370062.78506
        26              13.00000           3010.06420         149709.21324              1.99577         938291.82806         377885.23410        1316177.06217          53885.26322        1370062.32538        1370062.32538
        27              13.50000           3053.88567         148762.86786              1.99502         951951.77758         361143.49918        1313095.27676          56967.19626        1370062.47303        1370062.47303
        28              14.00000           3098.69795         147801.25506              1.99429         965920.58055         344123.90883        1310044.48938          60018.84100        1370063.33039        1370063.33039
        29              14.50000           3144.35940         146824.72708              1.99357         980154.08530         326875.02991        1307029.11521          63035.96986        1370065.08507        1370065.08507
        30              15.00000           3190.75809         145832.74115              1.99286         994617.40213         309432.86353        1304050.26566          66015.39321        1370065.65887        1370065.65887
        31              15.50000           3237.75172         144827.27746              1.99218        1009266.17468         291844.32234        1301110.49701          68954.64996        1370065.14698        1370065.14698
        32              16.00000           3285.15750         143811.13733              1.99150        1024043.41922         274169.93841        1298213.35763          71851.83243        1370065.19006        1370065.19006
        33              16.50000           3332.79979         142787.55873              1.99084        1038894.38755         256465.79999        1295360.18754          74705.58607        1370065.77361        1370065.77361
        34              17.00000           3380.54511         141758.52790              1.99020        1053777.47522         238774.89274        1292552.36796          77515.30800        1370067.67597        1370067.67597
        35              17.50000           3428.31299         140725.86151              1.98956        1068667.59224         221120.96622        1289788.55846          80281.49867        1370070.05712        1370070.05712
        36              18.00000           3476.04857         139691.26281              1.98894        1083547.64053         203517.59744        1287065.23797          83006.15711        1370071.39508        1370071.39508
        37              18.50000           3523.67255         138655.91231              1.98833        1098392.90251         185985.56919        1284378.47170          85693.05273        1370071.52442        1370071.52442
        38              19.00000           3571.06605         137621.48418              1.98772        1113166.31923         168556.94995        1281723.26918          88347.75499        1370071.02417        1370071.02417
        39              19.50000           3618.09435         136589.79925              1.98713        1127825.89876         151267.64617        1279093.54493          90977.37961        1370070.92454        1370070.92454
        40              20.00000           3664.65334         135560.98895              1.98653        1142339.18431         134142.22826        1276481.41257          93590.08507        1370071.49763        1370071.49763
        41              20.50000           3710.65817         134534.05425              1.98595        1156679.72668         117195.37492        1273875.10161          96194.44129        1370069.54290        1370069.54290
        42              21.00000           3755.93082         133511.28344              1.98537        1170792.03569         100474.00419        1271266.03988          98798.82167        1370064.86155        1370064.86155
        43              21.50000           3800.19119         132497.24758              1.98479        1184588.79887          84061.83351        1268650.63238         101410.87882        1370061.51120        1370061.51120
        44              22.00000           3843.19375         131495.10693              1.98421        1197993.48096          68029.88489        1266023.36585         104037.09624        1370060.46209        1370060.46209
        45              22.50000           3884.78934         130501.98088              1.98364        1210959.58179          52417.81037        1263377.39216         106682.41673        1370059.80889        1370059.80889
        46              23.00000           3924.85544         129517.05075              1.98307        1223448.91763          37260.79968        1260709.71731         109350.02872        1370059.74603        1370059.74603
        47              23.50000           3963.30225         128537.15692              1.98250        1235433.48681          22587.96515        1258021.45196         112041.32596        1370062.77792        1370062.77792
        48              24.00000           4000.09840         127560.01615              1.98193        1246903.51845           8403.18005        1255306.69850         114756.01725        1370062.71575        1370062.71575
        49              24.50000           4035.09441         126588.41200              1.98137        1257812.41094          -5245.54808        1252566.86286         117492.41988        1370059.28274        1370059.28274
        50              25.00000           4068.00816         125629.76774              1.98081        1268072.22684         -18260.40407        1249811.82277         120247.85905        1370059.68182        1370059.68182
        51              25.50000           4098.65923         124688.86797              1.98025        1277626.72300         -30583.83105        1247042.89195         123019.07983        1370061.97178        1370061.97178
        52              26.00000           4126.95572         123769.74584              1.97970        1286447.25522         -42188.58049        1244258.67473         125802.63364        1370061.30837        1370061.30837
        53              26.50000           4152.80033         122877.41784              1.97915        1294503.48848         -53033.99244        1241469.49604         128595.20678        1370064.70282        1370064.70282
        54              27.00000           4176.32928         122008.18606              1.97860        1301837.89127         -63154.38584        1238683.50543         131393.80251        1370077.30794        1370077.30794
        55              27.50000           4198.03071         121151.71310              1.97806        1308602.62124         -72707.51024        1235895.11101         134195.81178        1370090.92279        1370090.92279
        56              28.00000           4218.45942         120296.71260              1.97752        1314970.62418         -81868.97903        1233101.64515         136999.04097        1370100.68612        1370100.68612
        57              28.50000           4237.88592         119437.42652              1.97699        1321026.21880         -90729.15000        1230297.06880         139801.67170        1370098.74050        1370098.74050
        58              29.00000           4256.01661         118587.33967              1.97647        1326677.88210         -99191.86381        1227486.01829         142602.21013        1370088.22841        1370088.22841
        59              29.50000           4272.28073         117766.49198              1.97595        1331747.70686        -107054.84487        1224692.86198         145399.40919        1370092.27118        1370092.27118
        60              30.00000           4286.63429         116976.77825              1.97543        1336221.97142        -114304.08750        1221917.88392         148192.11155        1370109.99546        1370109.99546
        61              30.50000           4299.62686         116205.10191              1.97493        1340271.99198        -121124.30272        1219147.68926         150979.15352        1370126.84278        1370126.84278
        62              31.00000           4311.82717         115436.49735              1.97443        1344075.05150        -127699.20270        1216375.84881         153759.38095        1370135.22976        1370135.22976
        63              31.50000           4323.34736         114674.48448              1.97393        1347666.10571        -134068.27565        1213597.83006         156531.73828        1370129.56835        1370129.56835
        64              32.00000           4333.76363         113932.49101              1.97345        1350913.04443        -140082.73181        1210830.31263         159295.31602        1370125.62864        1370125.62864
        65              32.50000           4342.71603         113225.57772              1.97297        1353703.67157        -145616.36827        1208087.30330         162049.32654        1370136.62984        1370136.62984
        66              33.00000           4350.39235         112550.44913              1.97250        1356096.52026        -150739.41284        1205357.10742         164793.08785        1370150.19528        1370150.19528
        67              33.50000           4357.21447         111895.42229              1.97204        1358223.10056        -155588.12476        1202634.97579         167526.01136        1370160.98715        1370160.98715
        68              34.00000           4363.53104         111252.58757              1.97158        1360192.09017        -160269.83646        1199922.25371         170247.63721        1370169.89091        1370169.89091
        69              34.50000           4369.54274         110616.03318              1.97113        1362066.04446        -164852.64244        1197213.40202         172957.65450        1370171.05652        1370171.05652
        70              35.00000           4375.12663         109989.16992              1.97069        1363806.64726        -169297.74534        1194508.90192         175655.88115        1370164.78307        1370164.78307
        71              35.50000           4379.86585         109386.11809              1.97026        1365283.94735        -173464.73792        1191819.20943         178342.23616        1370161.44560        1370161.44560
        72              36.00000           4383.51416         108814.98580              1.96984        1366421.19121        -177267.20214        1189153.98908         181016.69600        1370170.68507        1370170.68507
        73              36.50000           4386.34633         108268.61528              1.96942        1367304.03179        -180799.42647        1186504.60531         183679.27156        1370183.87688        1370183.87688
        74              37.00000           4388.79832         107737.27874              1.96901        1368068.35931        -184210.74635        1183857.61296         186330.04658        1370187.65954        1370187.65954
        75              37.50000           4391.01527         107212.06436              1.96861        1368759.42327        -187540.46603        1181218.95724         188969.17319        1370188.13043        1370188.13043
        76              38.00000           4392.93796         106699.90319              1.96821        1369358.76112        -190760.37989        1178598.38123         191596.86598        1370195.24721        1370195.24721
        77              38.50000           4394.72893         106195.35931              1.96783        1369917.03846        -193926.80553        1175990.23293         194213.41300        1370203.64593        1370203.64593
        78              39.00000           4396.59159         105705.40809              1.96744        1370497.66597        -197107.61638        1173390.04959         196819.21566        1370209.26525        1370209.26525
        79              39.50000           4398.51932         105230.93076              1.96707        1371098.57311        -200306.08132        1170792.49179         199414.79880        1370207.29059        1370207.29059
        80              40.00000           4400.26620         104769.08772              1.96670        1371643.10892        -203442.09581        1168201.01311         202000.66295        1370201.67607        1370201.67607
        81              40.50000           4401.61656         104326.31472              1.96634        1372064.03848        -206426.98958        1165637.04890         204577.23328        1370214.28218        1370214.28218
        82              41.00000           4402.77197         103896.87440              1.96598        1372424.20333        -209347.99583        1163076.20749         207144.91414        1370221.12164        1370221.12164
        83              41.50000           4403.91949         103477.01923              1.96563        1372781.90483        -212265.32590        1160516.57893         209704.12861        1370220.70754        1370220.70754
        84              42.00000           4404.99802         103066.58072              1.96529        1373118.10150        -215151.11941        1157966.98209         212255.30777        1370222.28986        1370222.28986
        85              42.50000           4405.97421         102669.75360              1.96495        1373422.39962        -217994.31858        1155428.08104         214798.87812        1370226.95916        1370226.95916
        86              43.00000           4406.89835         102285.04433              1.96461        1373710.47007        -220818.06215        1152892.40792         217335.27488        1370227.68280        1370227.68280
        87              43.50000           4407.74525         101912.13165              1.96428        1373974.46388        -223609.96425        1150364.49963         219864.92264        1370229.42227        1370229.42227
        88              44.00000           4408.47556         101550.40854              1.96396        1374202.11338        -226357.55535        1147844.55803         222388.21760        1370232.77563        1370232.77563
        89              44.50000           4409.12427         101198.57535              1.96364        1374404.33046        -229075.05164        1145329.27881         224905.53052        1370234.80933        1370234.80933
        90              45.00000           4409.68349         100857.30335              1.96332        1374578.64961        -231762.64732        1142816.00229         227417.21895        1370233.22123        1370233.22123
        91              45.50000           4410.00535         100527.98564              1.96301        1374678.97743        -234371.12320        1140307.85422         229923.60100        1370231.45522        1370231.45522
        92              46.00000           4409.99773         100209.43120              1.96271        1374676.60165        -236864.17904        1137812.42261         232424.92071        1370237.34332        1370237.34332
        93              46.50000           4409.82399          99900.72704              1.96240        1374622.44497        -239301.05252        1135321.39245         234921.39606        1370242.78851        1370242.78851
        94              47.00000           4409.63452          99596.91937              1.96211        1374563.38336        -241737.37402        1132826.00934         237413.27009        1370239.27943        1370239.27943
        95              47.50000           4409.29799          99298.03786              1.96181        1374458.48198        -244124.39806        1130334.08392         239900.76362        1370234.84755        1370234.84755
        96              48.00000           4408.60599          99012.13621              1.96152        1374242.77084        -246391.16301        1127851.60783         242384.04018        1370235.64800        1370235.64800
        97              48.50000           4407.62550          98740.23607              1.96123        1373937.13606        -248556.46760        1125380.66845         244863.24217        1370243.91062        1370243.91062
        98              49.00000           4406.73845          98472.41429              1.96095        1373660.62471        -250747.76894        1122912.85577         247338.55644        1370251.41221        1370251.41221
        99              49.50000           4406.28454          98200.41034              1.96067        1373519.13445        -253079.01869        1120440.11577         249810.26201        1370250.37778        1370250.37778
       100              50.00000           4406.30401          97925.83502              1.96039        1373525.20442        -255554.30697        1117970.89745         252278.71927        1370249.61672        1370249.61672
Loop time of 25.5231 on 36 procs for 100 steps with 104576 atoms

Performance: 0.169 ns/day, 141.795 hours/ns, 3.918 timesteps/s, 409.731 katom-step/s
99.7% CPU use with 36 MPI tasks x no OpenMP threads

MPI task timing breakdown:
Section |  min time  |  avg time  |  max time  |%varavg| %total
---------------------------------------------------------------
Pair    | 5.1266     | 10.383     | 23.976     | 143.5 | 40.68
Neigh   | 0.17814    | 0.25578    | 0.30176    |   7.1 |  1.00
Comm    | 1.2181     | 14.771     | 20.104     | 120.0 | 57.87
Output  | 0.0062347  | 0.0064448  | 0.0088143  |   0.5 |  0.03
Modify  | 0.066898   | 0.099699   | 0.23261    |  13.5 |  0.39
Other   |            | 0.007758   |            |       |  0.03

Nlocal:        2904.89 ave        4055 max        1281 min
Histogram: 2 3 5 1 6 2 0 1 8 8
Nghost:        7282.94 ave        8509 max        6009 min
Histogram: 3 3 6 2 1 3 7 6 4 1
Neighs:              0 ave           0 max           0 min
Histogram: 36 0 0 0 0 0 0 0 0 0
FullNghs:       105177 ave      137106 max       62245 min
Histogram: 3 4 4 2 3 2 1 2 6 9

Total # of neighbors = 3786366
Ave neighs/atom = 36.206835
Neighbor list builds = 10
Dangerous builds = 0
Total wall time: 0:00:26
